20 190
1 2 43
1 3 19
1 4 37
1 5 11
1 6 23
1 7 28
1 8 14
1 9 25
1 10 5
1 11 16
1 12 7
1 13 8
1 14 41
1 15 49
1 16 35
1 17 30
1 18 2
1 19 47
1 20 39
2 3 18
2 4 33
2 5 36
2 6 13
2 7 24
2 8 22
2 9 38
2 10 3
2 11 4
2 12 1
2 13 9
2 14 15
2 15 27
2 16 17
2 17 10
2 18 20
2 19 12
2 20 46
3 4 48
3 5 21
3 6 50
3 7 32
3 8 44
3 9 31
3 10 26
3 11 40
3 12 6
3 13 42
3 14 34
3 15 45
3 16 29
3 17 20
3 18 19
3 19 28
3 20 7
4 5 5
4 6 36
4 7 27
4 8 20
4 9 47
4 10 23
4 11 14
4 12 32
4 13 42
4 14 15
4 15 4
4 16 11
4 17 19
4 18 1
4 19 8
4 20 25
5 6 12
5 7 26
5 8 31
5 9 38
5 10 7
5 11 43
5 12 30
5 13 16
5 14 45
5 15 36
5 16 19
5 17 33
5 18 37
5 19 35
5 20 29
6 7 48
6 8 2
6 9 24
6 10 41
6 11 5
6 12 27
6 13 14
6 14 3
6 15 47
6 16 50
6 17 22
6 18 39
6 19 8
6 20 34
7 8 28
7 9 4
7 10 36
7 11 9
7 12 43
7 13 6
7 14 39
7 15 11
7 16 37
7 17 19
7 18 44
7 19 15
7 20 1
8 9 45
8 10 22
8 11 7
8 12 29
8 13 5
8 14 31
8 15 13
8 16 41
8 17 35
8 18 40
8 19 9
8 20 27
9 10 24
9 11 8
9 12 33
9 13 42
9 14 23
9 15 38
9 16 25
9 17 14
9 18 1
9 19 47
9 20 21
10 11 12
10 12 17
10 13 34
10 14 49
10 15 15
10 16 39
10 17 3
10 18 41
10 19 19
10 20 5
11 12 29
11 13 40
11 14 35
11 15 26
11 16 27
11 17 16
11 18 2
11 19 7
11 20 13
12 13 11
12 14 10
12 15 39
12 16 21
12 17 42
12 18 23
12 19 31
12 20 30
13 14 16
13 15 3
13 16 36
13 17 33
13 18 38
13 19 8
13 20 45
14 15 19
14 16 46
14 17 12
14 18 5
14 19 2
14 20 20
15 16 25
15 17 28
15 18 50
15 19 22
15 20 41
16 17 4
16 18 49
16 19 37
16 20 30
17 18 34
17 19 6
17 20 23
18 19 43
18 20 24
19 20 10